nN = 4;
nR = 17;
nH = 1;

a = [[17, 25, 12, 14, 5, 13, 14, 23, 16, 6, 15, 10, 11, 9, 12, 20, 18], [10, 10, 20, 16, 19, 17, 19, 17, 20, 8, 11, 18, 18, 24, 5, 11, 20], [11, 9, 9, 11, 25, 14, 21, 15, 6, 19, 6, 25, 23, 20, 13, 24, 5], [15, 12, 5, 15, 9, 16, 20, 18, 25, 8, 19, 19, 18, 17, 19, 6, 15]];
c = [[[0, 0, 0, 0, 0, 0, 0, 0, 0, 0, 0, 0, 0, 0, 0, 0, 0], [30, 37, 39, 42, 42, 37, 45, 30, 32, 34, 40, 35, 44, 36, 32, 36, 35], [46, 38, 48, 34, 38, 49, 46, 31, 40, 33, 35, 44, 50, 37, 43, 50, 35], [38, 49, 46, 33, 47, 42, 39, 34, 49, 34, 35, 47, 31, 47, 43, 47, 37]], [[0, 0, 0, 0, 0, 0, 0, 0, 0, 0, 0, 0, 0, 0, 0, 0, 0], [0, 0, 0, 0, 0, 0, 0, 0, 0, 0, 0, 0, 0, 0, 0, 0, 0], [43, 31, 46, 35, 32, 33, 43, 48, 47, 47, 35, 32, 39, 47, 38, 36, 32], [49, 30, 42, 39, 50, 33, 43, 41, 34, 34, 47, 43, 40, 40, 48, 41, 31]], [[0, 0, 0, 0, 0, 0, 0, 0, 0, 0, 0, 0, 0, 0, 0, 0, 0], [0, 0, 0, 0, 0, 0, 0, 0, 0, 0, 0, 0, 0, 0, 0, 0, 0], [0, 0, 0, 0, 0, 0, 0, 0, 0, 0, 0, 0, 0, 0, 0, 0, 0], [45, 46, 33, 32, 40, 36, 45, 48, 31, 46, 45, 30, 40, 48, 35, 30, 33]], [[0, 0, 0, 0, 0, 0, 0, 0, 0, 0, 0, 0, 0, 0, 0, 0, 0], [0, 0, 0, 0, 0, 0, 0, 0, 0, 0, 0, 0, 0, 0, 0, 0, 0], [0, 0, 0, 0, 0, 0, 0, 0, 0, 0, 0, 0, 0, 0, 0, 0, 0], [0, 0, 0, 0, 0, 0, 0, 0, 0, 0, 0, 0, 0, 0, 0, 0, 0]]];
Q = [[46], [57], [57], [54]];

q = [[[19], [22], [6], [7], [8], [21], [25], [6], [11], [23], [7], [14], [19], [20], [5], [5], [8]], [[13], [19], [15], [21], [9], [18], [6], [22], [15], [25], [12], [20], [8], [12], [21], [22], [24]], [[14], [23], [19], [25], [20], [22], [23], [13], [13], [8], [23], [11], [7], [16], [23], [7], [14]], [[6], [7], [11], [24], [22], [17], [22], [6], [18], [24], [16], [11], [10], [24], [22], [8], [21]]];
p = [0.41, 0.11, 0.81, 0.18, 0.87, 0.74, 0.07, 0.25, 0.97, 0.54, 0.87, 0.83, 0.54, 0.02, 0.05, 0.12, 0.27];
